<number of tasks>
50

<cycle time>
1000

<order strength>
0.198


<task times>
1 479
2 495
3 32
4 65
5 34
6 31
7 160
8 59
9 74
10 355
11 314
12 495
13 32
14 95
15 252
16 371
17 270
18 117
19 40
20 162
21 37
22 153
23 47
24 155
25 217
26 115
27 611
28 156
29 139
30 346
31 473
32 491
33 158
34 301
35 166
36 469
37 131
38 66
39 423
40 240
41 34
42 38
43 88
44 147
45 162
46 170
47 490
48 98
49 199
50 148

<precedence relations>
1,18
2,18
3,12
4,14
5,11
5,13
5,15
6,17
7,9
8,10
8,16
9,18
10,18
11,19
12,21
13,20
14,22
15,24
17,23
18,25
18,26
18,27
18,28
18,30
18,31
19,29
20,29
23,32
26,36
28,33
29,35
30,37
31,34
34,38
35,40
37,39
37,41
38,42
38,45
39,46
41,43
41,44
42,47
43,48
44,49
46,50

<end>
